p td 37 111
4 2
6 4
7 3
8 2
8 3
9 3
10 5
10 8
11 1
11 6
11 7
12 10
13 4
13 9
14 4
14 13
14 12
15 5
16 14
16 2
16 7
16 10
17 1
17 15
17 9
18 16
18 13
18 12
18 7
19 16
19 10
19 2
19 4
19 7
19 8
20 18
20 1
21 1
21 6
22 9
22 17
22 20
23 9
23 4
23 10
23 6
23 8
24 1
24 15
24 2
24 22
25 8
25 14
25 17
25 11
26 23
26 18
26 2
26 17
27 22
27 23
27 8
28 23
28 17
28 9
28 5
29 11
29 28
29 17
30 8
30 12
30 5
31 9
31 23
31 11
31 12
31 30
31 29
32 15
32 30
32 12
32 21
32 22
32 6
32 1
33 28
33 20
33 22
33 23
33 31
33 18
33 19
33 3
34 14
34 19
34 22
34 17
34 4
35 6
35 27
35 23
36 10
36 1
36 24
36 11
36 30
37 13
37 33
37 6
37 15
37 11
